32      4       
17      13      17      20      
0       0       0       0       0       2       2       3       
8       1       4       1       12      3       4       5       6       
3       1       5       6       2       3       5       6       7       
9       8       1       10      1       3       7       9       13      
6       1       5       3       12      7       9       11      12      13      15      19      23      
3       2       1       4       1       5       8       14      19      20      24      
1       6       1       8       5       11      10      11      12      14      15      18      19      21      22      23      24      
4       6       5       4       2       10      10      11      12      13      15      16      17      21      22      23      
7       1       2       7       8       8       10      14      16      17      18      20      21      24      
6       4       4       1       11      5       25      26      27      28      31      
5       5       1       6       7       5       25      26      27      28      31      
10      1       5       5       1       5       25      26      27      28      31      
9       2       2       8       8       5       25      26      27      28      31      
1       1       13      1       1       4       26      27      28      31      
10      4       4       5       1       4       25      26      27      28      
3       2       1       12      8       4       25      26      28      31      
4       9       1       2       1       4       25      26      27      28      
3       10      4       6       1       4       25      26      28      31      
6       1       1       9       1       4       26      27      30      31      
8       3       1       7       14      4       26      27      30      31      
8       3       9       1       14      3       25      26      27      
6       11      6       1       6       3       25      26      27      
2       7       2       2       1       2       26      28      
9       4       7       1       7       2       25      27      
4       5       1       1       1       2       29      30      
5       13      1       1       1       1       29      
4       8       1       1       8       1       29      
1       1       5       4       6       1       30      
10      1       1       1       7       1       32      
1       6       1       9       1       1       32      
10      1       3       1       1       1       32      
0       0       0       0       0       0       
